(set-logic ALL)
; rows (m) = 200
; cols (n) = 25
(declare-const D (Array Int (Array Int Int)))
(define-fun m () Int 200)
(define-fun n () Int 25)

; ----- Int version of row25 (NO ellipses) -----
(define-fun row25 ((x0 Int) (x1 Int) (x2 Int) (x3 Int) (x4 Int)
                   (x5 Int) (x6 Int) (x7 Int) (x8 Int) (x9 Int)
                   (x10 Int) (x11 Int) (x12 Int) (x13 Int) (x14 Int)
                   (x15 Int) (x16 Int) (x17 Int) (x18 Int) (x19 Int)
                   (x20 Int) (x21 Int) (x22 Int) (x23 Int) (x24 Int))
  (Array Int Int)(store(store(store(store(store(store(store(store(store(store(store(store(store(store(store(store(store(store(store(store(store(store(store(store
                          (store ((as const (Array Int Int)) 0) 0 x0)
                                1 x1)2 x2)3 x3)4 x4)5 x5)6 x6)7 x7)8 x8)9 x9)10 x10)11 x11)12 x12)13 x13)14 x14)15 x15)16 x16)17 x17)18 x18)19 x19)20 x20)21 x21)22 x22)23 x23)24 x24)
)

(assert (= (select D 0) (row25 1 6 4 12 5 5 3 4 1 67 3 2 1 2 1 0 0 1 0 0 1 0 0 1 1)))
(assert (= (select D 1) (row25 2 48 2 60 1 3 2 2 1 22 3 1 1 1 1 0 0 1 0 0 1 0 0 1 2)))
(assert (= (select D 2) (row25 4 12 4 21 1 4 3 3 1 49 3 1 2 1 1 0 0 1 0 0 1 0 1 0 1)))
(assert (= (select D 3) (row25 1 42 2 79 1 4 3 4 2 45 3 1 2 1 1 0 0 0 0 0 0 0 0 1 1)))
(assert (= (select D 4) (row25 1 24 3 49 1 3 3 4 4 53 3 2 2 1 1 1 0 1 0 0 0 0 0 1 2)))
(assert (= (select D 5) (row25 4 36 2 91 5 3 3 4 4 35 3 1 2 2 1 0 0 1 0 0 0 0 1 0 1)))
(assert (= (select D 6) (row25 4 24 2 28 3 5 3 4 2 53 3 1 1 1 1 0 0 1 0 0 1 0 0 1 1)))
(assert (= (select D 7) (row25 2 36 2 69 1 3 3 2 3 35 3 1 1 2 1 0 1 1 0 1 0 0 0 0 1)))
(assert (= (select D 8) (row25 4 12 2 31 4 4 1 4 1 61 3 1 1 1 1 0 0 1 0 0 1 0 1 0 1)))
(assert (= (select D 9) (row25 2 30 4 52 1 1 4 2 3 28 3 2 1 1 1 1 0 1 0 0 1 0 0 0 2)))
(assert (= (select D 10) (row25 2 12 2 13 1 2 2 1 3 25 3 1 1 1 1 1 0 1 0 1 0 0 0 1 2)))
(assert (= (select D 11) (row25 1 48 2 43 1 2 2 4 2 24 3 1 1 1 1 0 0 1 0 1 0 0 0 1 2)))
(assert (= (select D 12) (row25 2 12 2 16 1 3 2 1 3 22 3 1 1 2 1 0 0 1 0 0 1 0 0 1 1)))
(assert (= (select D 13) (row25 1 24 4 12 1 5 3 4 3 60 3 2 1 1 1 1 0 1 0 0 1 0 1 0 2)))
(assert (= (select D 14) (row25 1 15 2 14 1 3 2 4 3 28 3 1 1 1 1 1 0 1 0 1 0 0 0 1 1)))
(assert (= (select D 15) (row25 1 24 2 13 2 3 2 2 3 32 3 1 1 1 1 0 0 1 0 0 1 0 1 0 2)))
(assert (= (select D 16) (row25 4 24 4 24 5 5 3 4 2 53 3 2 1 1 1 0 0 1 0 0 1 0 0 1 1)))
(assert (= (select D 17) (row25 1 30 0 81 5 2 3 3 3 25 1 3 1 1 1 0 0 1 0 0 1 0 0 1 1)))
(assert (= (select D 18) (row25 2 24 2 126 1 5 2 2 4 44 3 1 1 2 1 0 1 1 0 0 0 0 0 0 2)))
(assert (= (select D 19) (row25 4 24 2 34 3 5 3 2 3 31 3 1 2 2 1 0 0 1 0 0 1 0 0 1 1)))
(assert (= (select D 20) (row25 4 9 4 21 1 3 3 4 3 48 3 3 1 2 1 1 0 1 0 0 1 0 0 1 1)))
(assert (= (select D 21) (row25 1 6 2 26 3 3 3 3 1 44 3 1 2 1 1 0 0 1 0 1 0 0 0 1 1)))
(assert (= (select D 22) (row25 1 10 4 22 1 2 3 3 1 48 3 2 2 1 2 1 0 1 0 1 0 0 1 0 1)))
(assert (= (select D 23) (row25 2 12 4 18 2 2 3 4 2 44 3 1 1 1 1 0 1 1 0 0 1 0 0 1 1)))
(assert (= (select D 24) (row25 4 10 4 21 5 3 4 1 3 26 3 2 1 1 2 0 0 1 0 0 1 0 0 1 1)))
(assert (= (select D 25) (row25 1 6 2 14 1 3 3 2 1 36 1 1 1 2 1 0 0 1 0 0 1 0 1 0 1)))
(assert (= (select D 26) (row25 4 6 0 4 1 5 4 4 3 39 3 1 1 1 1 0 0 1 0 0 1 0 1 0 1)))
(assert (= (select D 27) (row25 3 12 1 4 4 3 2 3 1 42 3 2 1 1 1 0 0 1 0 1 0 0 0 1 1)))
(assert (= (select D 28) (row25 2 7 2 24 1 3 3 2 1 34 3 1 1 1 1 0 0 0 0 0 1 0 0 1 1)))
(assert (= (select D 29) (row25 1 60 3 68 1 5 3 4 4 63 3 2 1 2 1 0 0 1 0 0 1 0 0 1 2)))
(assert (= (select D 30) (row25 2 18 2 19 4 2 4 3 1 36 1 1 1 2 1 0 0 1 0 0 1 0 0 1 1)))
(assert (= (select D 31) (row25 1 24 2 40 1 3 3 2 3 27 2 1 1 1 1 0 0 1 0 0 1 0 0 1 1)))
(assert (= (select D 32) (row25 2 18 2 59 2 3 3 2 3 30 3 2 1 2 1 1 0 1 0 0 1 0 0 1 1)))
(assert (= (select D 33) (row25 4 12 4 13 5 5 3 4 4 57 3 1 1 1 1 0 0 1 0 1 0 0 1 0 1)))
(assert (= (select D 34) (row25 3 12 2 15 1 2 2 1 2 33 1 1 1 2 1 0 0 1 0 0 1 0 0 0 1)))
(assert (= (select D 35) (row25 2 45 4 47 1 2 3 2 2 25 3 2 1 1 1 0 0 1 0 0 1 0 1 0 2)))
(assert (= (select D 36) (row25 4 48 4 61 1 3 3 3 4 31 1 1 1 2 1 0 0 1 0 0 0 0 0 1 1)))
(assert (= (select D 37) (row25 3 18 2 21 1 3 3 2 1 37 2 1 1 1 1 0 0 0 1 0 1 0 0 1 2)))
(assert (= (select D 38) (row25 3 10 2 12 1 3 3 2 3 37 3 1 1 2 1 0 0 1 0 0 1 0 0 1 1)))
(assert (= (select D 39) (row25 2 9 2 5 1 3 3 3 1 24 3 1 1 1 1 0 0 1 0 0 1 0 0 1 1)))
(assert (= (select D 40) (row25 4 30 2 23 3 5 3 2 3 30 1 1 1 1 1 0 0 1 0 0 1 0 0 0 1)))
(assert (= (select D 41) (row25 2 12 2 12 3 3 1 1 3 26 3 1 1 2 1 0 0 1 0 0 1 0 0 1 1)))
(assert (= (select D 42) (row25 2 18 3 62 1 3 3 4 1 44 3 1 2 2 1 0 0 1 0 0 1 0 1 0 1)))
(assert (= (select D 43) (row25 1 30 4 62 2 4 4 4 3 24 3 2 1 1 1 0 1 1 0 1 0 0 0 1 1)))
(assert (= (select D 44) (row25 1 48 4 61 1 5 2 4 4 58 2 2 1 1 1 0 1 1 0 0 0 0 1 0 2)))
(assert (= (select D 45) (row25 4 11 4 14 1 2 2 4 3 35 3 2 1 1 1 1 0 1 0 0 1 0 0 0 1)))
(assert (= (select D 46) (row25 4 36 2 23 3 5 3 4 3 39 3 1 1 1 1 0 0 1 0 0 1 0 0 1 1)))
(assert (= (select D 47) (row25 1 6 2 14 3 1 2 2 2 23 3 1 1 2 1 0 1 1 0 1 0 1 0 0 1)))
(assert (= (select D 48) (row25 4 11 4 72 1 3 3 4 2 39 3 2 1 1 1 1 0 1 0 0 1 0 1 0 1)))
(assert (= (select D 49) (row25 4 12 2 21 2 3 2 2 1 28 3 1 1 1 1 0 0 0 1 0 1 0 0 1 1)))
(assert (= (select D 50) (row25 2 24 3 23 5 2 3 2 2 29 1 1 1 1 1 0 0 1 0 0 1 0 1 0 1)))
(assert (= (select D 51) (row25 2 27 3 60 1 5 3 2 3 30 3 2 1 2 1 0 1 1 0 0 1 0 0 0 1)))
(assert (= (select D 52) (row25 4 12 2 13 1 3 3 2 3 25 3 1 1 1 1 0 0 1 0 0 1 0 0 1 1)))
(assert (= (select D 53) (row25 4 18 2 34 5 3 3 1 2 31 3 1 1 2 1 0 1 1 0 0 1 0 0 1 1)))
(assert (= (select D 54) (row25 2 36 3 22 1 5 3 4 4 57 1 2 1 2 1 1 0 1 0 0 0 0 0 1 2)))
(assert (= (select D 55) (row25 4 6 1 8 5 3 3 2 1 26 2 1 2 1 1 1 0 0 0 0 1 0 1 0 1)))
(assert (= (select D 56) (row25 2 12 2 65 5 1 3 1 4 52 3 1 1 2 1 0 0 1 0 0 1 0 0 0 2)))
(assert (= (select D 57) (row25 4 36 4 96 1 3 2 2 3 31 2 2 1 1 1 0 0 1 0 0 1 0 0 1 1)))
(assert (= (select D 58) (row25 3 18 2 20 1 5 2 2 3 23 3 1 1 1 1 1 0 1 0 0 1 0 0 0 1)))
(assert (= (select D 59) (row25 1 36 4 62 1 2 2 4 4 23 3 2 1 2 1 0 0 0 1 1 0 0 1 0 2)))
(assert (= (select D 60) (row25 2 9 2 14 1 3 4 1 1 27 1 1 1 2 1 0 0 1 0 0 1 0 0 1 1)))
(assert (= (select D 61) (row25 2 15 4 15 5 5 3 4 1 50 3 2 1 2 1 0 0 0 0 0 1 0 0 1 1)))
(assert (= (select D 62) (row25 2 36 0 20 1 5 3 4 4 61 3 1 1 2 1 0 0 1 0 0 0 0 0 0 2)))
(assert (= (select D 63) (row25 2 48 0 144 1 3 3 2 3 25 3 1 1 2 1 0 0 1 0 0 1 0 0 1 2)))
(assert (= (select D 64) (row25 4 24 2 32 1 2 2 4 2 26 3 1 1 2 1 0 0 1 0 0 1 0 0 1 1)))
(assert (= (select D 65) (row25 4 27 2 52 5 5 3 4 2 48 3 4 2 2 1 0 0 1 0 0 1 0 0 1 1)))
(assert (= (select D 66) (row25 4 12 2 22 1 2 2 2 3 29 1 1 1 1 1 0 0 1 0 0 1 0 0 1 1)))
(assert (= (select D 67) (row25 2 12 2 10 4 3 4 1 1 22 3 1 1 1 1 1 0 1 0 0 1 0 0 1 1)))
(assert (= (select D 68) (row25 4 36 2 18 1 3 3 4 4 37 2 1 1 2 1 0 0 1 0 0 0 0 0 1 2)))
(assert (= (select D 69) (row25 4 36 2 24 5 3 2 4 3 25 3 1 1 1 1 0 0 1 0 0 1 0 0 1 1)))
(assert (= (select D 70) (row25 4 36 2 81 1 3 2 2 2 30 1 1 1 1 1 0 1 1 0 0 1 0 0 1 1)))
(assert (= (select D 71) (row25 4 7 4 7 5 5 3 2 2 46 3 2 1 2 1 0 0 1 0 1 0 0 1 0 1)))
(assert (= (select D 72) (row25 1 8 4 12 1 5 3 4 4 51 1 2 2 2 1 0 0 1 0 0 0 0 0 0 1)))
(assert (= (select D 73) (row25 2 42 4 60 1 4 2 1 1 41 1 2 1 1 1 0 0 1 0 0 1 0 1 0 1)))
(assert (= (select D 74) (row25 1 36 2 20 5 5 3 4 4 40 3 1 1 2 1 0 0 1 0 0 1 0 0 0 2)))
(assert (= (select D 75) (row25 1 12 4 15 1 5 3 4 4 66 3 2 1 1 1 0 1 1 0 0 0 0 0 0 1)))
(assert (= (select D 76) (row25 1 42 2 40 1 2 3 3 3 34 3 1 1 1 1 0 0 1 0 0 1 0 0 1 2)))
(assert (= (select D 77) (row25 2 11 3 48 1 4 3 4 2 51 3 1 1 1 1 0 0 1 0 0 1 0 0 1 1)))
(assert (= (select D 78) (row25 4 54 0 94 5 3 3 2 2 39 3 1 2 1 1 0 1 1 0 0 1 0 1 0 1)))
(assert (= (select D 79) (row25 2 30 2 38 1 2 4 1 2 22 3 1 1 1 1 0 0 1 0 0 1 0 0 1 1)))
(assert (= (select D 80) (row25 4 24 2 59 5 2 2 1 3 44 3 2 1 2 1 0 0 1 0 0 1 0 0 1 2)))
(assert (= (select D 81) (row25 4 15 2 12 3 5 3 3 2 47 2 1 1 2 1 0 0 1 0 0 1 0 0 1 1)))
(assert (= (select D 82) (row25 4 18 2 16 2 3 2 4 2 24 3 1 1 1 1 0 0 1 0 1 0 0 1 0 1)))
(assert (= (select D 83) (row25 1 24 2 18 1 5 2 4 1 58 3 1 1 2 1 0 0 0 0 0 1 0 1 0 1)))
(assert (= (select D 84) (row25 1 10 2 23 1 5 3 4 1 52 3 1 1 1 1 0 0 1 0 0 1 0 1 0 1)))
(assert (= (select D 85) (row25 4 12 4 14 1 3 2 2 1 29 3 2 1 2 1 0 0 0 0 0 1 0 0 0 1)))
(assert (= (select D 86) (row25 2 18 4 13 1 2 2 1 2 27 3 2 1 1 1 0 0 1 0 0 1 0 0 1 1)))
(assert (= (select D 87) (row25 2 36 2 126 2 3 3 4 4 47 3 1 2 2 1 0 0 1 0 0 0 0 0 1 2)))
(assert (= (select D 88) (row25 1 18 2 22 2 4 3 3 3 30 3 1 2 2 1 1 0 1 0 0 1 0 0 0 1)))
(assert (= (select D 89) (row25 1 12 0 11 1 4 3 3 1 28 3 2 1 1 1 0 0 1 0 0 1 0 0 1 2)))
(assert (= (select D 90) (row25 4 12 4 6 1 5 3 4 1 56 3 1 1 1 1 0 0 1 0 0 1 0 0 1 1)))
(assert (= (select D 91) (row25 1 12 4 14 1 5 3 3 1 54 3 1 1 1 1 0 1 1 0 0 1 0 0 1 1)))
(assert (= (select D 92) (row25 4 12 4 8 5 5 2 3 2 33 1 1 2 1 1 0 0 1 0 0 1 0 1 0 2)))
(assert (= (select D 93) (row25 3 24 4 36 5 5 3 4 4 20 3 2 1 1 1 0 0 0 1 1 0 0 0 1 1)))
(assert (= (select D 94) (row25 2 12 2 13 4 5 3 4 1 54 3 1 1 2 1 1 0 1 0 0 1 0 0 1 1)))
(assert (= (select D 95) (row25 2 54 0 159 1 2 3 4 4 58 3 1 1 2 1 0 0 1 0 1 0 0 0 1 2)))
(assert (= (select D 96) (row25 4 12 4 20 5 4 2 2 3 61 3 1 1 1 1 0 0 1 0 0 1 0 0 1 1)))
(assert (= (select D 97) (row25 2 18 2 26 2 3 3 4 3 34 3 1 1 1 1 0 0 1 0 0 1 0 0 1 1)))
(assert (= (select D 98) (row25 2 36 4 23 1 5 3 4 1 36 3 1 1 1 1 0 0 1 0 0 1 0 0 1 1)))
(assert (= (select D 99) (row25 2 20 3 71 5 4 3 4 2 36 1 2 2 2 1 0 1 1 0 1 0 0 0 0 1)))
(assert (= (select D 100) (row25 4 24 2 15 2 5 4 4 1 41 3 1 1 1 1 1 0 1 0 1 0 0 1 0 1)))
(assert (= (select D 101) (row25 2 36 2 23 1 4 3 4 3 24 3 1 1 1 1 0 0 1 0 1 0 0 0 1 1)))
(assert (= (select D 102) (row25 4 6 3 9 1 3 2 2 1 24 3 1 1 1 1 0 0 1 0 0 1 0 0 1 1)))
(assert (= (select D 103) (row25 2 9 4 19 1 4 3 3 3 35 3 1 1 2 1 0 0 1 0 1 0 0 0 1 1)))
(assert (= (select D 104) (row25 4 12 2 24 5 2 4 4 3 26 3 1 1 2 1 0 1 1 0 1 0 0 0 1 1)))
(assert (= (select D 105) (row25 2 24 4 119 1 3 3 3 3 39 3 2 2 2 1 0 0 0 1 0 1 0 0 0 2)))
(assert (= (select D 106) (row25 4 18 1 65 1 5 3 4 4 39 1 2 2 2 1 1 0 1 0 0 1 0 0 0 2)))
(assert (= (select D 107) (row25 2 12 2 61 1 4 3 2 3 32 3 1 1 1 1 1 0 1 0 0 1 0 0 1 1)))
(assert (= (select D 108) (row25 1 24 2 77 5 2 2 2 2 30 3 1 1 2 2 0 0 1 0 0 1 0 0 1 1)))
(assert (= (select D 109) (row25 2 14 2 14 3 5 4 2 1 35 3 1 1 2 1 0 0 1 0 0 1 0 0 1 1)))
(assert (= (select D 110) (row25 2 6 3 14 2 5 1 2 3 31 1 2 2 1 1 0 0 1 0 0 1 0 0 1 1)))
(assert (= (select D 111) (row25 3 15 2 4 1 2 2 4 2 23 3 1 1 2 1 0 0 1 0 1 0 0 0 1 1)))
(assert (= (select D 112) (row25 2 18 2 63 1 4 3 3 1 28 3 1 1 1 1 1 0 1 0 1 0 0 1 0 1)))
(assert (= (select D 113) (row25 4 36 4 79 1 3 2 2 1 25 2 2 1 2 1 1 0 1 0 0 1 0 0 1 2)))
(assert (= (select D 114) (row25 1 12 2 17 3 5 4 1 1 35 3 1 1 1 1 0 0 1 0 0 1 0 0 1 1)))
(assert (= (select D 115) (row25 4 48 4 36 5 5 3 1 1 47 3 1 1 2 1 0 0 1 0 0 1 0 0 1 1)))
(assert (= (select D 116) (row25 1 42 2 72 5 4 2 3 3 30 3 1 1 2 1 0 0 1 0 0 1 0 0 0 2)))
(assert (= (select D 117) (row25 1 10 4 21 5 2 2 3 1 27 3 2 1 1 2 0 0 0 1 1 0 0 0 1 1)))
(assert (= (select D 118) (row25 1 33 4 43 3 3 2 4 3 23 3 2 1 1 1 0 0 1 0 0 1 0 0 1 2)))
(assert (= (select D 119) (row25 2 12 4 24 3 4 1 3 3 36 3 1 1 2 1 1 0 1 0 0 1 0 0 0 1)))
(assert (= (select D 120) (row25 1 21 2 18 1 3 2 2 1 25 3 2 1 2 1 0 0 1 0 0 1 0 0 1 2)))
(assert (= (select D 121) (row25 4 24 4 39 1 5 2 2 3 41 3 2 1 2 1 0 1 1 0 1 0 0 0 0 1)))
(assert (= (select D 122) (row25 4 12 2 18 1 3 3 2 1 24 3 1 1 1 1 0 0 1 0 1 0 0 1 0 1)))
(assert (= (select D 123) (row25 3 10 4 8 1 5 3 4 4 63 3 2 1 2 1 1 0 1 0 0 0 0 0 1 1)))
(assert (= (select D 124) (row25 2 18 2 19 5 2 2 3 1 27 3 1 1 1 1 0 0 1 0 1 0 0 0 1 2)))
(assert (= (select D 125) (row25 1 12 4 21 1 3 3 2 2 30 3 2 1 1 1 1 0 1 0 0 1 0 0 1 1)))
(assert (= (select D 126) (row25 1 12 2 7 1 3 4 2 1 40 3 1 1 1 1 0 0 1 0 0 1 0 1 0 1)))
(assert (= (select D 127) (row25 2 12 2 6 1 3 3 2 3 30 3 1 1 1 1 0 0 1 0 0 1 0 0 1 2)))
(assert (= (select D 128) (row25 2 12 4 19 1 1 3 2 3 34 3 2 1 2 1 0 1 1 0 0 1 0 0 0 1)))
(assert (= (select D 129) (row25 1 12 4 35 1 3 2 2 1 29 3 2 1 1 1 1 0 0 1 0 1 0 0 1 2)))
(assert (= (select D 130) (row25 2 48 2 85 5 4 2 2 3 24 3 1 1 1 1 1 0 1 0 0 1 0 0 1 1)))
(assert (= (select D 131) (row25 1 36 3 69 1 3 3 3 2 29 2 1 1 2 1 0 0 1 0 0 1 0 0 1 2)))
(assert (= (select D 132) (row25 4 15 2 27 1 2 3 3 2 27 1 2 1 1 1 0 0 1 0 0 1 0 1 0 1)))
(assert (= (select D 133) (row25 4 18 2 20 1 3 3 4 4 47 1 2 1 1 1 0 0 1 0 0 0 0 0 1 1)))
(assert (= (select D 134) (row25 4 60 2 101 2 4 2 4 1 21 3 1 1 2 1 0 0 1 0 0 1 0 0 1 1)))
(assert (= (select D 135) (row25 4 12 4 12 5 5 2 2 1 38 3 2 1 2 1 0 0 1 0 0 1 0 0 1 1)))
(assert (= (select D 136) (row25 4 27 3 86 4 3 3 2 3 27 3 2 1 1 1 0 1 1 0 0 1 0 0 1 1)))
(assert (= (select D 137) (row25 2 12 2 8 3 3 3 3 1 66 3 1 1 1 1 0 0 1 0 0 1 0 1 0 2)))
(assert (= (select D 138) (row25 2 15 4 27 5 4 3 2 1 35 1 3 1 2 1 0 0 0 0 0 1 0 0 1 1)))
(assert (= (select D 139) (row25 3 12 2 19 1 3 2 2 3 44 3 1 1 2 1 0 0 1 0 1 0 0 1 0 1)))
(assert (= (select D 140) (row25 3 6 2 7 4 2 4 2 1 27 3 1 1 1 2 1 0 1 0 0 1 1 0 0 1)))
(assert (= (select D 141) (row25 2 36 2 48 1 2 2 1 4 30 3 1 1 2 1 0 0 1 0 0 1 0 0 0 1)))
(assert (= (select D 142) (row25 1 27 2 34 1 3 3 2 3 27 3 1 1 1 1 0 0 1 0 0 1 0 0 0 1)))
(assert (= (select D 143) (row25 1 18 2 25 1 3 3 2 3 22 3 1 1 1 1 0 0 1 0 0 1 0 0 1 2)))
(assert (= (select D 144) (row25 4 21 4 23 1 2 2 4 2 23 3 1 1 2 1 0 0 1 0 0 1 0 0 1 1)))
(assert (= (select D 145) (row25 2 48 1 36 2 4 3 2 3 30 3 1 1 1 1 0 0 1 0 0 1 0 0 1 1)))
(assert (= (select D 146) (row25 1 6 4 9 1 5 2 4 4 39 3 2 1 2 1 1 0 1 0 0 1 0 0 1 1)))
(assert (= (select D 147) (row25 4 12 4 7 2 4 2 3 3 51 3 2 1 2 1 1 0 1 0 0 1 0 0 1 1)))
(assert (= (select D 148) (row25 1 36 4 54 1 3 3 2 2 28 3 2 1 1 1 0 0 0 0 0 1 0 0 1 1)))
(assert (= (select D 149) (row25 4 18 4 16 4 5 3 4 3 46 3 2 1 1 1 0 0 1 0 0 1 0 0 1 1)))
(assert (= (select D 150) (row25 4 6 2 13 2 5 3 4 4 42 1 1 2 2 1 0 0 1 0 0 0 0 0 1 1)))
(assert (= (select D 151) (row25 4 10 2 19 1 3 3 4 2 38 3 1 1 2 2 0 0 1 0 0 1 0 0 1 1)))
(assert (= (select D 152) (row25 3 36 2 58 1 3 3 1 3 24 3 1 1 1 1 0 0 1 0 0 1 0 0 1 1)))
(assert (= (select D 153) (row25 2 24 4 78 4 5 2 4 4 29 3 1 1 1 1 0 1 1 0 1 0 0 0 1 1)))
(assert (= (select D 154) (row25 2 24 3 70 2 4 3 4 3 36 3 1 1 2 1 0 0 1 0 1 0 0 0 0 1)))
(assert (= (select D 155) (row25 1 12 2 13 1 3 2 4 3 20 3 1 1 1 1 0 0 1 0 1 0 0 0 1 2)))
(assert (= (select D 156) (row25 1 9 4 13 2 5 3 4 1 48 3 2 2 1 2 0 0 0 0 0 1 0 0 1 1)))
(assert (= (select D 157) (row25 1 12 1 3 1 5 4 1 3 45 1 1 1 1 1 0 0 1 0 0 1 0 1 0 1)))
(assert (= (select D 158) (row25 2 24 2 35 2 4 3 3 3 38 1 2 1 2 1 1 0 1 0 0 1 0 0 1 1)))
(assert (= (select D 159) (row25 4 6 4 19 5 3 3 2 1 34 3 2 2 1 1 0 0 1 0 0 1 0 1 0 1)))
(assert (= (select D 160) (row25 4 24 4 29 2 5 3 4 1 36 3 1 2 2 1 0 0 1 0 0 1 0 0 1 1)))
(assert (= (select D 161) (row25 4 18 4 11 1 2 2 1 2 30 3 2 1 1 1 1 0 1 0 0 1 0 0 1 1)))
(assert (= (select D 162) (row25 4 15 2 13 3 4 3 3 2 36 3 2 1 2 1 0 0 1 0 0 1 0 0 1 1)))
(assert (= (select D 163) (row25 2 10 2 73 1 1 3 4 4 70 1 1 1 2 1 1 0 1 0 0 0 0 0 0 1)))
(assert (= (select D 164) (row25 4 36 2 9 3 5 3 4 2 36 3 1 1 1 1 1 0 1 0 0 1 0 0 1 1)))
(assert (= (select D 165) (row25 4 6 2 30 3 3 3 2 3 32 3 1 1 2 1 0 0 1 0 0 1 0 0 1 1)))
(assert (= (select D 166) (row25 1 18 2 11 1 1 2 2 3 33 3 1 1 1 1 0 0 1 0 0 1 0 0 1 2)))
(assert (= (select D 167) (row25 2 11 2 16 4 2 2 1 1 20 3 1 1 1 1 0 0 1 0 0 1 0 0 1 1)))
(assert (= (select D 168) (row25 4 24 2 40 1 4 2 4 2 25 3 1 1 2 1 0 0 1 0 1 0 0 0 1 1)))
(assert (= (select D 169) (row25 2 24 4 19 1 5 1 4 1 31 3 2 1 2 1 0 0 1 0 0 1 0 0 1 2)))
(assert (= (select D 170) (row25 1 15 0 10 1 5 3 3 3 33 3 2 2 1 1 1 0 1 0 1 0 0 0 1 2)))
(assert (= (select D 171) (row25 4 12 2 8 1 3 2 1 1 26 3 1 1 2 1 0 0 1 0 0 1 0 0 1 1)))
(assert (= (select D 172) (row25 2 24 3 21 1 1 2 2 2 34 3 1 1 2 1 0 0 1 0 0 1 0 0 0 2)))
(assert (= (select D 173) (row25 2 8 2 14 1 3 3 2 1 33 3 1 1 1 2 0 0 0 0 0 1 0 0 1 1)))
(assert (= (select D 174) (row25 1 21 3 34 1 2 3 1 2 26 3 2 1 1 1 0 0 1 0 0 1 0 0 1 2)))
(assert (= (select D 175) (row25 4 30 1 75 5 1 2 1 1 53 1 1 1 2 1 0 1 1 0 0 1 0 0 0 2)))
(assert (= (select D 176) (row25 1 12 2 26 1 3 1 1 3 42 3 1 1 1 1 0 0 1 0 0 1 0 0 1 1)))
(assert (= (select D 177) (row25 1 6 4 3 3 5 3 4 3 52 3 2 1 1 1 0 0 1 0 0 1 0 0 1 1)))
(assert (= (select D 178) (row25 4 12 2 20 1 4 3 2 3 31 3 2 2 2 1 0 0 1 0 1 0 0 0 0 1)))
(assert (= (select D 179) (row25 1 21 4 6 1 5 3 4 1 65 3 2 1 1 1 1 0 1 0 0 1 0 0 1 1)))
(assert (= (select D 180) (row25 4 36 3 96 1 2 1 1 3 28 3 2 1 1 1 0 0 1 0 0 1 0 0 1 2)))
(assert (= (select D 181) (row25 2 36 3 45 1 3 1 2 1 30 2 2 1 2 1 0 0 1 0 0 1 0 0 0 2)))
(assert (= (select D 182) (row25 1 21 1 16 5 3 3 2 2 40 3 2 2 1 1 1 0 1 0 0 1 0 1 0 2)))
(assert (= (select D 183) (row25 4 24 4 38 4 3 3 4 1 50 3 1 1 2 1 0 0 1 0 0 1 0 0 1 1)))
(assert (= (select D 184) (row25 2 18 4 9 1 5 3 4 3 36 1 1 2 2 1 1 0 1 0 0 1 0 0 1 2)))
(assert (= (select D 185) (row25 4 15 4 14 1 3 3 2 2 31 3 2 1 1 1 0 0 1 0 0 1 0 0 1 1)))
(assert (= (select D 186) (row25 2 9 1 51 1 5 2 4 4 74 1 1 2 2 1 0 1 1 0 0 0 0 0 0 2)))
(assert (= (select D 187) (row25 2 16 4 12 1 1 3 3 3 68 3 3 1 2 1 1 0 1 0 0 0 1 0 0 1)))
(assert (= (select D 188) (row25 1 12 2 7 2 4 4 1 2 20 3 1 1 1 1 0 0 1 0 0 1 0 0 1 2)))
(assert (= (select D 189) (row25 2 18 0 32 1 3 2 4 3 33 1 2 1 2 1 0 0 1 0 0 1 0 0 1 1)))
(assert (= (select D 190) (row25 4 24 2 46 4 3 3 3 2 54 3 3 1 2 1 0 0 1 0 0 1 0 0 0 2)))
(assert (= (select D 191) (row25 2 48 0 38 2 4 3 4 4 34 3 1 2 1 1 0 0 1 0 0 0 0 1 0 2)))
(assert (= (select D 192) (row25 2 27 2 39 1 3 3 2 3 36 3 1 2 2 1 0 0 1 0 0 1 0 0 1 2)))
(assert (= (select D 193) (row25 4 6 2 21 1 4 4 2 1 29 3 1 1 1 1 0 0 1 0 1 0 0 0 1 1)))
(assert (= (select D 194) (row25 2 45 2 30 2 3 3 4 2 21 3 1 1 1 1 0 0 0 0 1 0 0 0 1 2)))
(assert (= (select D 195) (row25 2 9 4 15 1 5 2 3 3 34 3 2 1 2 1 0 0 1 0 0 1 0 0 0 2)))
(assert (= (select D 196) (row25 4 6 4 14 1 3 2 1 3 28 3 2 1 2 1 0 0 1 0 0 1 0 0 1 1)))
(assert (= (select D 197) (row25 2 12 2 10 2 2 2 4 3 27 1 4 1 1 1 0 0 1 0 1 0 0 0 1 2)))
(assert (= (select D 198) (row25 2 24 2 28 5 5 3 4 4 36 1 1 1 2 1 0 1 1 0 0 0 0 0 1 1)))
(assert (= (select D 199) (row25 2 18 3 43 1 5 1 3 4 40 3 1 1 2 1 0 0 1 0 0 1 0 0 0 2)))

(assert
  (forall ((i Int))
    (=> (and (>= i 0) (< i m))
        (and (>= (select (select D i) 1) 0)
             (<  (select (select D i) 1) 600)))))
(check-sat)
